c generated by generate.py on 2024-12-24 06:25:10
c negative instance
p edge 19 50
e 0 2
e 0 4
e 0 5
e 0 6
e 0 11
e 1 2
e 1 7
e 1 8
e 1 15
e 1 17
e 1 18
e 2 5
e 2 7
e 2 11
e 2 17
e 2 18
e 3 11
e 3 16
e 3 17
e 3 18
e 4 8
e 4 13
e 4 15
e 4 18
e 5 10
e 5 16
e 6 13
e 6 16
e 6 17
e 7 8
e 7 10
e 7 11
e 7 12
e 8 9
e 8 12
e 8 15
e 8 18
e 9 10
e 9 13
e 9 14
e 10 11
e 10 13
e 10 15
e 10 17
e 12 15
e 12 16
e 13 14
e 14 16
e 15 18
e 16 18
